14
0 44 74 19 96 71 61 68 46 41 48 75 67 42
44 0 63 16 17 37 8 19 33 31 63 50 45 33
74 63 0 18 59 50 36 70 28 20 13 65 27 24
19 16 18 0 73 4 59 43 49 55 31 35 68 77
96 17 59 73 0 53 55 43 53 28 76 72 69 73
71 37 50 4 53 0 56 48 69 69 19 53 33 25
61 8 36 59 55 56 0 23 56 38 66 62 33 13
68 19 70 43 43 48 23 0 49 67 70 37 80 47
46 33 28 49 53 69 56 49 0 35 11 73 23 35
41 31 20 55 28 69 38 67 35 0 16 78 26 31
48 63 13 31 76 19 66 70 11 16 0 76 68 40
75 50 65 35 72 53 62 37 73 78 76 0 46 9
67 45 27 68 69 33 33 80 23 26 68 46 0 56
42 33 24 77 73 25 13 47 35 31 40 9 56 0
